NAME : 0
COMMENT : CVRP Instance
TYPE : CVRP
DIMENSION : 510
EDGE_WEIGHT_TYPE : EUC_2D
CAPACITY : 145
NODE_COORD_SECTION
1	832.0	322.0
2	152.0	152.0
3	593.0	820.0
4	592.0	857.0
5	609.0	812.0
6	501.0	205.0
7	885.0	821.0
8	116.0	74.0
9	687.0	463.0
10	134.0	94.0
11	963.0	765.0
12	365.0	487.0
13	430.0	442.0
14	592.0	458.0
15	357.0	307.0
16	376.0	351.0
17	436.0	473.0
18	382.0	438.0
19	372.0	225.0
20	918.0	767.0
21	734.0	525.0
22	392.0	338.0
23	399.0	375.0
24	598.0	882.0
25	654.0	875.0
26	579.0	879.0
27	808.0	520.0
28	388.0	463.0
29	617.0	873.0
30	246.0	398.0
31	787.0	840.0
32	761.0	534.0
33	695.0	439.0
34	715.0	553.0
35	427.0	408.0
36	374.0	365.0
37	344.0	470.0
38	537.0	303.0
39	780.0	815.0
40	385.0	499.0
41	336.0	524.0
42	749.0	922.0
43	810.0	663.0
44	485.0	240.0
45	646.0	903.0
46	699.0	559.0
47	628.0	902.0
48	855.0	829.0
49	631.0	907.0
50	365.0	334.0
51	255.0	147.0
52	786.0	738.0
53	849.0	718.0
54	395.0	562.0
55	865.0	940.0
56	761.0	676.0
57	789.0	823.0
58	634.0	850.0
59	312.0	563.0
60	575.0	517.0
61	658.0	882.0
62	260.0	533.0
63	307.0	307.0
64	692.0	551.0
65	633.0	879.0
66	900.0	744.0
67	652.0	942.0
68	310.0	333.0
69	275.0	195.0
70	511.0	810.0
71	320.0	347.0
72	253.0	198.0
73	305.0	371.0
74	698.0	915.0
75	326.0	344.0
76	640.0	526.0
77	485.0	573.0
78	679.0	885.0
79	940.0	886.0
80	423.0	546.0
81	305.0	335.0
82	664.0	536.0
83	637.0	543.0
84	447.0	557.0
85	185.0	146.0
86	314.0	330.0
87	181.0	136.0
88	224.0	278.0
89	523.0	555.0
90	553.0	413.0
91	822.0	742.0
92	485.0	564.0
93	231.0	247.0
94	164.0	80.0
95	472.0	638.0
96	778.0	893.0
97	560.0	796.0
98	787.0	841.0
99	477.0	607.0
100	160.0	158.0
101	153.0	118.0
102	461.0	603.0
103	737.0	686.0
104	711.0	664.0
105	825.0	777.0
106	176.0	131.0
107	473.0	553.0
108	133.0	48.0
109	822.0	1000.0
110	810.0	766.0
111	494.0	582.0
112	833.0	950.0
113	687.0	565.0
114	189.0	165.0
115	109.0	121.0
116	166.0	95.0
117	122.0	0.0
118	119.0	36.0
119	565.0	381.0
120	717.0	507.0
121	337.0	446.0
122	213.0	272.0
123	713.0	615.0
124	807.0	791.0
125	697.0	496.0
126	284.0	467.0
127	196.0	119.0
128	889.0	795.0
129	116.0	94.0
130	808.0	773.0
131	601.0	518.0
132	510.0	457.0
133	731.0	575.0
134	248.0	448.0
135	134.0	110.0
136	846.0	821.0
137	892.0	816.0
138	890.0	803.0
139	895.0	773.0
140	278.0	457.0
141	275.0	480.0
142	685.0	900.0
143	187.0	207.0
144	657.0	488.0
145	835.0	790.0
146	440.0	132.0
147	303.0	420.0
148	809.0	813.0
149	633.0	842.0
150	708.0	882.0
151	809.0	822.0
152	328.0	199.0
153	96.0	146.0
154	902.0	881.0
155	366.0	171.0
156	886.0	804.0
157	787.0	777.0
158	177.0	236.0
159	430.0	796.0
160	836.0	968.0
161	887.0	823.0
162	526.0	396.0
163	183.0	330.0
164	422.0	154.0
165	897.0	798.0
166	845.0	805.0
167	89.0	96.0
168	156.0	216.0
169	132.0	159.0
170	128.0	152.0
171	163.0	297.0
172	174.0	238.0
173	381.0	143.0
174	171.0	221.0
175	467.0	196.0
176	127.0	143.0
177	384.0	113.0
178	368.0	169.0
179	129.0	99.0
180	144.0	178.0
181	499.0	395.0
182	98.0	126.0
183	157.0	137.0
184	392.0	171.0
185	110.0	133.0
186	122.0	166.0
187	244.0	494.0
188	199.0	394.0
189	135.0	275.0
190	844.0	996.0
191	725.0	872.0
192	820.0	968.0
193	785.0	792.0
194	87.0	205.0
195	191.0	388.0
196	453.0	787.0
197	433.0	720.0
198	675.0	892.0
199	699.0	411.0
200	388.0	167.0
201	338.0	143.0
202	850.0	790.0
203	373.0	176.0
204	422.0	215.0
205	130.0	318.0
206	410.0	779.0
207	437.0	213.0
208	795.0	838.0
209	816.0	778.0
210	360.0	165.0
211	113.0	100.0
212	387.0	180.0
213	907.0	797.0
214	826.0	929.0
215	373.0	359.0
216	69.0	132.0
217	37.0	122.0
218	891.0	823.0
219	459.0	756.0
220	108.0	167.0
221	810.0	857.0
222	60.0	219.0
223	857.0	803.0
224	393.0	137.0
225	128.0	285.0
226	69.0	199.0
227	39.0	94.0
228	573.0	799.0
229	53.0	201.0
230	25.0	82.0
231	391.0	249.0
232	852.0	850.0
233	946.0	795.0
234	126.0	101.0
235	114.0	142.0
236	27.0	219.0
237	851.0	826.0
238	0.0	202.0
239	40.0	200.0
240	862.0	672.0
241	844.0	797.0
242	748.0	527.0
243	871.0	880.0
244	973.0	906.0
245	435.0	199.0
246	880.0	916.0
247	831.0	833.0
248	420.0	219.0
249	112.0	113.0
250	145.0	190.0
251	757.0	655.0
252	647.0	453.0
253	475.0	300.0
254	492.0	272.0
255	935.0	695.0
256	703.0	573.0
257	959.0	923.0
258	740.0	590.0
259	424.0	246.0
260	957.0	808.0
261	478.0	267.0
262	427.0	210.0
263	296.0	182.0
264	149.0	224.0
265	900.0	837.0
266	717.0	483.0
267	579.0	828.0
268	574.0	483.0
269	395.0	797.0
270	436.0	229.0
271	422.0	246.0
272	656.0	506.0
273	729.0	566.0
274	388.0	243.0
275	400.0	283.0
276	476.0	270.0
277	172.0	156.0
278	352.0	208.0
279	613.0	478.0
280	207.0	190.0
281	651.0	520.0
282	1000.0	906.0
283	554.0	503.0
284	307.0	240.0
285	127.0	142.0
286	39.0	171.0
287	832.0	855.0
288	895.0	903.0
289	770.0	896.0
290	699.0	577.0
291	182.0	163.0
292	415.0	197.0
293	256.0	198.0
294	186.0	210.0
295	176.0	243.0
296	691.0	530.0
297	637.0	457.0
298	741.0	534.0
299	488.0	213.0
300	702.0	591.0
301	138.0	176.0
302	65.0	140.0
303	650.0	913.0
304	582.0	415.0
305	757.0	600.0
306	412.0	255.0
307	792.0	840.0
308	53.0	158.0
309	489.0	309.0
310	229.0	220.0
311	749.0	544.0
312	818.0	958.0
313	511.0	262.0
314	84.0	127.0
315	232.0	197.0
316	491.0	270.0
317	452.0	798.0
318	676.0	584.0
319	167.0	252.0
320	838.0	936.0
321	210.0	210.0
322	640.0	503.0
323	52.0	185.0
324	241.0	248.0
325	425.0	245.0
326	514.0	219.0
327	675.0	586.0
328	341.0	261.0
329	767.0	922.0
330	461.0	259.0
331	668.0	868.0
332	617.0	547.0
333	467.0	287.0
334	867.0	688.0
335	463.0	343.0
336	407.0	217.0
337	508.0	215.0
338	231.0	245.0
339	160.0	230.0
340	20.0	220.0
341	423.0	305.0
342	78.0	184.0
343	440.0	332.0
344	734.0	589.0
345	458.0	365.0
346	365.0	343.0
347	473.0	382.0
348	451.0	390.0
349	485.0	376.0
350	768.0	877.0
351	599.0	390.0
352	514.0	397.0
353	417.0	348.0
354	475.0	348.0
355	778.0	650.0
356	755.0	534.0
357	427.0	379.0
358	390.0	350.0
359	395.0	337.0
360	750.0	906.0
361	398.0	305.0
362	383.0	335.0
363	486.0	450.0
364	445.0	403.0
365	421.0	343.0
366	420.0	367.0
367	428.0	374.0
368	212.0	255.0
369	478.0	370.0
370	130.0	185.0
371	484.0	405.0
372	70.0	215.0
373	399.0	343.0
374	404.0	320.0
375	255.0	285.0
376	798.0	833.0
377	436.0	411.0
378	382.0	323.0
379	261.0	274.0
380	346.0	357.0
381	287.0	285.0
382	386.0	349.0
383	753.0	649.0
384	495.0	432.0
385	488.0	393.0
386	161.0	256.0
387	917.0	755.0
388	351.0	315.0
389	258.0	274.0
390	129.0	248.0
391	369.0	357.0
392	305.0	316.0
393	470.0	345.0
394	311.0	333.0
395	448.0	387.0
396	339.0	311.0
397	341.0	303.0
398	902.0	709.0
399	473.0	415.0
400	259.0	314.0
401	153.0	222.0
402	367.0	399.0
403	355.0	338.0
404	505.0	397.0
405	501.0	735.0
406	467.0	392.0
407	787.0	631.0
408	483.0	424.0
409	696.0	526.0
410	57.0	219.0
411	29.0	233.0
412	324.0	325.0
413	516.0	468.0
414	453.0	461.0
415	488.0	446.0
416	898.0	732.0
417	139.0	235.0
418	941.0	713.0
419	457.0	372.0
420	434.0	380.0
421	472.0	450.0
422	446.0	440.0
423	468.0	402.0
424	478.0	380.0
425	54.0	210.0
426	451.0	452.0
427	34.0	228.0
428	123.0	105.0
429	525.0	857.0
430	436.0	284.0
431	377.0	257.0
432	843.0	698.0
433	673.0	455.0
434	425.0	382.0
435	278.0	293.0
436	119.0	237.0
437	121.0	289.0
438	903.0	736.0
439	434.0	422.0
440	376.0	400.0
441	57.0	235.0
442	47.0	223.0
443	341.0	408.0
444	57.0	243.0
445	540.0	799.0
446	913.0	783.0
447	477.0	456.0
448	481.0	365.0
449	456.0	395.0
450	431.0	368.0
451	412.0	393.0
452	434.0	397.0
453	652.0	489.0
454	443.0	448.0
455	512.0	553.0
456	339.0	358.0
457	537.0	820.0
458	425.0	357.0
459	377.0	364.0
460	715.0	523.0
461	464.0	372.0
462	330.0	390.0
463	370.0	355.0
464	427.0	460.0
465	595.0	460.0
466	405.0	447.0
467	454.0	515.0
468	316.0	371.0
469	470.0	460.0
470	376.0	377.0
471	420.0	273.0
472	372.0	427.0
473	406.0	420.0
474	418.0	360.0
475	386.0	413.0
476	393.0	408.0
477	404.0	345.0
478	342.0	190.0
479	492.0	535.0
480	397.0	450.0
481	971.0	715.0
482	579.0	803.0
483	438.0	438.0
484	429.0	485.0
485	444.0	172.0
486	492.0	233.0
487	471.0	203.0
488	883.0	887.0
489	510.0	589.0
490	158.0	262.0
491	367.0	267.0
492	174.0	314.0
493	148.0	280.0
494	115.0	74.0
495	785.0	740.0
496	949.0	734.0
497	444.0	451.0
498	927.0	777.0
499	130.0	319.0
500	758.0	567.0
501	219.0	362.0
502	734.0	669.0
503	440.0	559.0
504	639.0	502.0
505	869.0	685.0
506	402.0	277.0
507	379.0	303.0
508	368.0	279.0
509	747.0	589.0
510	391.0	325.0
DEMAND_SECTION
1	0
2	3
3	7
4	6
5	7
6	4
7	7
8	4
9	3
10	16
11	8
12	3
13	6
14	5
15	6
16	5
17	13
18	6
19	5
20	4
21	5
22	7
23	6
24	4
25	9
26	7
27	4
28	10
29	8
30	5
31	11
32	7
33	8
34	9
35	4
36	3
37	6
38	4
39	7
40	12
41	4
42	9
43	4
44	7
45	3
46	6
47	4
48	6
49	9
50	8
51	4
52	7
53	5
54	10
55	7
56	8
57	3
58	9
59	6
60	9
61	6
62	7
63	10
64	5
65	9
66	9
67	9
68	6
69	5
70	5
71	6
72	6
73	7
74	6
75	4
76	7
77	5
78	6
79	8
80	10
81	4
82	4
83	8
84	5
85	4
86	7
87	12
88	7
89	5
90	2
91	13
92	8
93	1
94	8
95	5
96	6
97	15
98	8
99	8
100	3
101	6
102	6
103	4
104	6
105	6
106	6
107	4
108	5
109	6
110	9
111	16
112	5
113	10
114	13
115	12
116	3
117	6
118	4
119	7
120	5
121	5
122	6
123	14
124	5
125	5
126	7
127	6
128	7
129	4
130	7
131	6
132	5
133	4
134	4
135	6
136	11
137	6
138	5
139	6
140	2
141	4
142	5
143	5
144	7
145	6
146	4
147	10
148	5
149	5
150	5
151	3
152	10
153	5
154	7
155	6
156	6
157	5
158	7
159	7
160	8
161	12
162	5
163	6
164	5
165	7
166	6
167	3
168	6
169	3
170	13
171	6
172	4
173	3
174	11
175	3
176	5
177	8
178	4
179	4
180	9
181	5
182	4
183	10
184	9
185	2
186	12
187	3
188	5
189	9
190	7
191	4
192	11
193	7
194	7
195	3
196	6
197	7
198	6
199	5
200	5
201	8
202	6
203	8
204	6
205	6
206	5
207	3
208	4
209	4
210	10
211	1
212	5
213	8
214	8
215	4
216	4
217	7
218	3
219	5
220	4
221	11
222	8
223	11
224	6
225	6
226	7
227	23
228	8
229	8
230	7
231	8
232	3
233	6
234	4
235	10
236	5
237	6
238	6
239	3
240	6
241	6
242	7
243	5
244	5
245	9
246	5
247	5
248	5
249	8
250	4
251	3
252	5
253	6
254	6
255	5
256	3
257	5
258	5
259	8
260	6
261	4
262	4
263	5
264	5
265	9
266	5
267	4
268	5
269	3
270	7
271	12
272	7
273	8
274	4
275	2
276	5
277	7
278	5
279	5
280	12
281	6
282	5
283	4
284	5
285	8
286	9
287	10
288	4
289	5
290	5
291	8
292	6
293	4
294	5
295	4
296	6
297	4
298	5
299	3
300	5
301	9
302	4
303	8
304	5
305	3
306	4
307	6
308	6
309	8
310	6
311	7
312	5
313	2
314	4
315	10
316	9
317	8
318	4
319	4
320	5
321	6
322	3
323	8
324	6
325	10
326	6
327	4
328	8
329	5
330	3
331	6
332	5
333	6
334	5
335	5
336	5
337	5
338	5
339	7
340	9
341	5
342	6
343	7
344	6
345	8
346	6
347	7
348	5
349	7
350	7
351	2
352	6
353	6
354	4
355	6
356	4
357	5
358	8
359	6
360	7
361	6
362	5
363	13
364	10
365	7
366	11
367	3
368	8
369	10
370	6
371	8
372	4
373	8
374	9
375	4
376	7
377	11
378	5
379	14
380	5
381	7
382	9
383	11
384	4
385	6
386	8
387	3
388	3
389	7
390	11
391	4
392	4
393	7
394	6
395	4
396	3
397	5
398	13
399	4
400	12
401	7
402	11
403	4
404	10
405	10
406	4
407	3
408	5
409	9
410	11
411	6
412	6
413	9
414	11
415	11
416	6
417	9
418	8
419	4
420	4
421	16
422	8
423	9
424	10
425	7
426	7
427	5
428	5
429	4
430	8
431	7
432	8
433	4
434	8
435	6
436	7
437	7
438	7
439	5
440	4
441	5
442	5
443	6
444	4
445	5
446	5
447	5
448	7
449	5
450	8
451	5
452	5
453	4
454	6
455	12
456	4
457	6
458	7
459	4
460	10
461	4
462	6
463	5
464	4
465	4
466	6
467	6
468	6
469	7
470	3
471	7
472	6
473	7
474	4
475	6
476	5
477	8
478	5
479	7
480	5
481	11
482	7
483	11
484	6
485	8
486	4
487	7
488	7
489	7
490	8
491	8
492	7
493	5
494	7
495	10
496	6
497	7
498	6
499	6
500	5
501	5
502	8
503	6
504	6
505	2
506	2
507	6
508	7
509	3
510	6
DEPOT_SECTION
1
-1
EOF
